p cnf 422 648
50 62 92 101 102 0
50 62 92 101 -102 0
50 62 92 -101 102 0
50 62 92 -101 -102 0
50 55 -92 103 104 0
50 55 -92 103 -104 0
50 55 -92 -103 104 0
50 55 -92 -103 -104 0
-55 62 -92 105 106 0
-55 62 -92 105 -106 0
-55 62 -92 -105 106 0
-55 62 -92 -105 -106 0
-50 62 80 107 108 0
-50 62 80 107 -108 0
-50 62 80 -107 108 0
-50 62 80 -107 -108 0
-80 83 99 109 110 0
-80 83 99 109 -110 0
-80 83 99 -109 110 0
-80 83 99 -109 -110 0
-50 -80 -99 111 112 0
-50 -80 -99 111 -112 0
-50 -80 -99 -111 112 0
-50 -80 -99 -111 -112 0
10 45 -62 113 114 0
10 45 -62 113 -114 0
10 45 -62 -113 114 0
10 45 -62 -113 -114 0
-10 53 -62 115 116 0
-10 53 -62 115 -116 0
-10 53 -62 -115 116 0
-10 53 -62 -115 -116 0
45 -53 83 117 118 0
45 -53 83 117 -118 0
45 -53 83 -117 118 0
45 -53 83 -117 -118 0
-45 58 83 119 120 0
-45 58 83 119 -120 0
-45 58 83 -119 120 0
-45 58 83 -119 -120 0
-45 48 -58 121 122 0
-45 48 -58 121 -122 0
-45 48 -58 -121 122 0
-45 48 -58 -121 -122 0
-83 92 93 123 124 0
-83 92 93 123 -124 0
-83 92 93 -123 124 0
-83 92 93 -123 -124 0
48 -83 -93 125 126 0
48 -83 -93 125 -126 0
48 -83 -93 -125 126 0
48 -83 -93 -125 -126 0
48 -83 -92 127 128 0
48 -83 -92 127 -128 0
48 -83 -92 -127 128 0
48 -83 -92 -127 -128 0
14 53 54 129 130 0
14 53 54 129 -130 0
14 53 54 -129 130 0
14 53 54 -129 -130 0
8 14 -53 131 132 0
8 14 -53 131 -132 0
8 14 -53 -131 132 0
8 14 -53 -131 -132 0
8 -14 54 133 134 0
8 -14 54 133 -134 0
8 -14 54 -133 134 0
8 -14 54 -133 -134 0
-8 41 -48 135 136 0
-8 41 -48 135 -136 0
-8 41 -48 -135 136 0
-8 41 -48 -135 -136 0
-41 57 74 137 138 0
-41 57 74 137 -138 0
-41 57 74 -137 138 0
-41 57 74 -137 -138 0
-8 -57 74 139 140 0
-8 -57 74 139 -140 0
-8 -57 74 -139 140 0
-8 -57 74 -139 -140 0
11 -41 -74 141 142 0
11 -41 -74 141 -142 0
11 -41 -74 -141 142 0
11 -41 -74 -141 -142 0
-8 -41 -74 143 144 0
-8 -41 -74 143 -144 0
-8 -41 -74 -143 144 0
-8 -41 -74 -143 -144 0
6 36 66 145 146 0
6 36 66 145 -146 0
6 36 66 -145 146 0
6 36 66 -145 -146 0
6 -36 66 147 148 0
6 -36 66 147 -148 0
6 -36 66 -147 148 0
6 -36 66 -147 -148 0
-6 52 73 149 150 0
-6 52 73 149 -150 0
-6 52 73 -149 150 0
-6 52 73 -149 -150 0
-6 66 -73 151 152 0
-6 66 -73 151 -152 0
-6 66 -73 -151 152 0
-6 66 -73 -151 -152 0
32 39 87 153 154 0
32 39 87 153 -154 0
32 39 87 -153 154 0
32 39 87 -153 -154 0
39 78 -87 155 156 0
39 78 -87 155 -156 0
39 78 -87 -155 156 0
39 78 -87 -155 -156 0
32 -39 -54 157 158 0
32 -39 -54 157 -158 0
32 -39 -54 -157 158 0
32 -39 -54 -157 -158 0
-32 -66 81 159 160 0
-32 -66 81 159 -160 0
-32 -66 81 -159 160 0
-32 -66 81 -159 -160 0
-32 -54 -81 161 162 0
-32 -54 -81 161 -162 0
-32 -54 -81 -161 162 0
-32 -54 -81 -161 -162 0
17 23 -78 163 164 0
17 23 -78 163 -164 0
17 23 -78 -163 164 0
17 23 -78 -163 -164 0
-23 29 52 165 166 0
-23 29 52 165 -166 0
-23 29 52 -165 166 0
-23 29 52 -165 -166 0
-29 52 61 167 168 0
-29 52 61 167 -168 0
-29 52 61 -167 168 0
-29 52 61 -167 -168 0
-29 -61 -78 169 170 0
-29 -61 -78 169 -170 0
-29 -61 -78 -169 170 0
-29 -61 -78 -169 -170 0
5 -17 52 171 172 0
5 -17 52 171 -172 0
5 -17 52 -171 172 0
5 -17 52 -171 -172 0
-5 -17 -78 173 174 0
-5 -17 -78 173 -174 0
-5 -17 -78 -173 174 0
-5 -17 -78 -173 -174 0
51 -52 98 175 176 0
51 -52 98 175 -176 0
51 -52 98 -175 176 0
51 -52 98 -175 -176 0
-48 -51 98 177 178 0
-48 -51 98 177 -178 0
-48 -51 98 -177 178 0
-48 -51 98 -177 -178 0
2 -52 -98 179 180 0
2 -52 -98 179 -180 0
2 -52 -98 -179 180 0
2 -52 -98 -179 -180 0
-2 70 -98 181 182 0
-2 70 -98 181 -182 0
-2 70 -98 -181 182 0
-2 70 -98 -181 -182 0
58 -70 75 183 184 0
58 -70 75 183 -184 0
58 -70 75 -183 184 0
58 -70 75 -183 -184 0
33 75 90 185 186 0
33 75 90 185 -186 0
33 75 90 -185 186 0
33 75 90 -185 -186 0
33 35 -90 187 188 0
33 35 -90 187 -188 0
33 35 -90 -187 188 0
33 35 -90 -187 -188 0
-33 -58 -70 189 190 0
-33 -58 -70 189 -190 0
-33 -58 -70 -189 190 0
-33 -58 -70 -189 -190 0
-2 73 -75 191 192 0
-2 73 -75 191 -192 0
-2 73 -75 -191 192 0
-2 73 -75 -191 -192 0
35 -73 96 193 194 0
35 -73 96 193 -194 0
35 -73 96 -193 194 0
35 -73 96 -193 -194 0
-73 -75 -96 195 196 0
-73 -75 -96 195 -196 0
-73 -75 -96 -195 196 0
-73 -75 -96 -195 -196 0
-35 -70 -98 197 198 0
-35 -70 -98 197 -198 0
-35 -70 -98 -197 198 0
-35 -70 -98 -197 -198 0
26 72 95 199 200 0
26 72 95 199 -200 0
26 72 95 -199 200 0
26 72 95 -199 -200 0
72 79 95 201 202 0
72 79 95 201 -202 0
72 79 95 -201 202 0
72 79 95 -201 -202 0
1 26 -28 203 204 0
1 26 -28 203 -204 0
1 26 -28 -203 204 0
1 26 -28 -203 -204 0
-26 -28 87 205 206 0
-26 -28 87 205 -206 0
-26 -28 87 -205 206 0
-26 -28 87 -205 -206 0
-26 -28 -87 207 208 0
-26 -28 -87 207 -208 0
-26 -28 -87 -207 208 0
-26 -28 -87 -207 -208 0
7 37 -38 209 210 0
7 37 -38 209 -210 0
7 37 -38 -209 210 0
7 37 -38 -209 -210 0
-1 27 67 211 212 0
-1 27 67 211 -212 0
-1 27 67 -211 212 0
-1 27 67 -211 -212 0
31 71 -94 213 214 0
31 71 -94 213 -214 0
31 71 -94 -213 214 0
31 71 -94 -213 -214 0
-18 -31 71 215 216 0
-18 -31 71 215 -216 0
-18 -31 71 -215 216 0
-18 -31 71 -215 -216 0
-13 34 -94 217 218 0
-13 34 -94 217 -218 0
-13 34 -94 -217 218 0
-13 34 -94 -217 -218 0
3 6 -67 219 220 0
3 6 -67 219 -220 0
3 6 -67 -219 220 0
3 6 -67 -219 -220 0
-3 -67 -79 221 222 0
-3 -67 -79 221 -222 0
-3 -67 -79 -221 222 0
-3 -67 -79 -221 -222 0
15 17 55 223 224 0
15 17 55 223 -224 0
15 17 55 -223 224 0
15 17 55 -223 -224 0
5 -55 93 225 226 0
5 -55 93 225 -226 0
5 -55 93 -225 226 0
5 -55 93 -225 -226 0
-5 15 -55 227 228 0
-5 15 -55 227 -228 0
-5 15 -55 -227 228 0
-5 15 -55 -227 -228 0
-23 64 86 229 230 0
-23 64 86 229 -230 0
-23 64 86 -229 230 0
-23 64 86 -229 -230 0
-1 -22 80 231 232 0
-1 -22 80 231 -232 0
-1 -22 80 -231 232 0
-1 -22 80 -231 -232 0
36 41 -53 233 234 0
36 41 -53 233 -234 0
36 41 -53 -233 234 0
36 41 -53 -233 -234 0
-22 46 -51 235 236 0
-22 46 -51 235 -236 0
-22 46 -51 -235 236 0
-22 46 -51 -235 -236 0
-11 -65 -81 237 238 0
-11 -65 -81 237 -238 0
-11 -65 -81 -237 238 0
-11 -65 -81 -237 -238 0
18 -21 -27 239 240 0
18 -21 -27 239 -240 0
18 -21 -27 -239 240 0
18 -21 -27 -239 -240 0
-11 -21 -27 241 242 0
-11 -21 -27 241 -242 0
-11 -21 -27 -241 242 0
-11 -21 -27 -241 -242 0
26 -35 40 243 244 0
26 -35 40 243 -244 0
26 -35 40 -243 244 0
26 -35 40 -243 -244 0
-12 49 -95 245 246 0
-12 49 -95 245 -246 0
-12 49 -95 -245 246 0
-12 49 -95 -245 -246 0
-12 -49 -95 247 248 0
-12 -49 -95 247 -248 0
-12 -49 -95 -247 248 0
-12 -49 -95 -247 -248 0
28 57 61 249 250 0
28 57 61 249 -250 0
28 57 61 -249 250 0
28 57 61 -249 -250 0
28 -57 -65 251 252 0
28 -57 -65 251 -252 0
28 -57 -65 -251 252 0
28 -57 -65 -251 -252 0
-4 -57 69 253 254 0
-4 -57 69 253 -254 0
-4 -57 69 -253 254 0
-4 -57 69 -253 -254 0
5 -25 77 255 256 0
5 -25 77 255 -256 0
5 -25 77 -255 256 0
5 -25 77 -255 -256 0
-47 57 -79 257 258 0
-47 57 -79 257 -258 0
-47 57 -79 -257 258 0
-47 57 -79 -257 -258 0
34 -38 -76 259 260 0
34 -38 -76 259 -260 0
34 -38 -76 -259 260 0
34 -38 -76 -259 -260 0
11 -68 -71 261 262 0
11 -68 -71 261 -262 0
11 -68 -71 -261 262 0
11 -68 -71 -261 -262 0
30 65 85 263 264 0
30 65 85 263 -264 0
30 65 85 -263 264 0
30 65 85 -263 -264 0
-30 69 85 265 266 0
-30 69 85 265 -266 0
-30 69 85 -265 266 0
-30 69 85 -265 -266 0
56 -69 77 267 268 0
56 -69 77 267 -268 0
56 -69 77 -267 268 0
56 -69 77 -267 -268 0
-56 65 -69 269 270 0
-56 65 -69 269 -270 0
-56 65 -69 -269 270 0
-56 65 -69 -269 -270 0
40 64 -88 271 272 0
40 64 -88 271 -272 0
40 64 -88 -271 272 0
40 64 -88 -271 -272 0
3 -19 -89 273 274 0
3 -19 -89 273 -274 0
3 -19 -89 -273 274 0
3 -19 -89 -273 -274 0
-3 -31 -89 275 276 0
-3 -31 -89 275 -276 0
-3 -31 -89 -275 276 0
-3 -31 -89 -275 -276 0
10 -42 43 277 278 0
10 -42 43 277 -278 0
10 -42 43 -277 278 0
10 -42 43 -277 -278 0
18 24 31 279 280 0
18 24 31 279 -280 0
18 24 31 -279 280 0
18 24 31 -279 -280 0
-18 34 -39 281 282 0
-18 34 -39 281 -282 0
-18 34 -39 -281 282 0
-18 34 -39 -281 -282 0
24 -34 -39 283 284 0
24 -34 -39 283 -284 0
24 -34 -39 -283 284 0
24 -34 -39 -283 -284 0
25 -30 71 285 286 0
25 -30 71 285 -286 0
25 -30 71 -285 286 0
25 -30 71 -285 -286 0
-49 79 90 287 288 0
-49 79 90 287 -288 0
-49 79 90 -287 288 0
-49 79 90 -287 -288 0
22 -37 40 289 290 0
22 -37 40 289 -290 0
22 -37 40 -289 290 0
22 -37 40 -289 -290 0
-10 56 94 291 292 0
-10 56 94 291 -292 0
-10 56 94 -291 292 0
-10 56 94 -291 -292 0
43 46 -61 293 294 0
43 46 -61 293 -294 0
43 46 -61 -293 294 0
43 46 -61 -293 -294 0
-9 -14 20 295 296 0
-9 -14 20 295 -296 0
-9 -14 20 -295 296 0
-9 -14 20 -295 -296 0
26 59 65 297 298 0
26 59 65 297 -298 0
26 59 65 -297 298 0
26 59 65 -297 -298 0
-19 26 -59 299 300 0
-19 26 -59 299 -300 0
-19 26 -59 -299 300 0
-19 26 -59 -299 -300 0
4 9 -68 301 302 0
4 9 -68 301 -302 0
4 9 -68 -301 302 0
4 9 -68 -301 -302 0
-9 -40 -93 303 304 0
-9 -40 -93 303 -304 0
-9 -40 -93 -303 304 0
-9 -40 -93 -303 -304 0
-46 49 56 305 306 0
-46 49 56 305 -306 0
-46 49 56 -305 306 0
-46 49 56 -305 -306 0
-36 57 76 307 308 0
-36 57 76 307 -308 0
-36 57 76 -307 308 0
-36 57 76 -307 -308 0
-1 82 97 309 310 0
-1 82 97 309 -310 0
-1 82 97 -309 310 0
-1 82 97 -309 -310 0
82 -96 97 311 312 0
82 -96 97 311 -312 0
82 -96 97 -311 312 0
82 -96 97 -311 -312 0
4 18 82 313 314 0
4 18 82 313 -314 0
4 18 82 -313 314 0
4 18 82 -313 -314 0
-59 67 68 315 316 0
-59 67 68 315 -316 0
-59 67 68 -315 316 0
-59 67 68 -315 -316 0
-17 30 -91 317 318 0
-17 30 -91 317 -318 0
-17 30 -91 -317 318 0
-17 30 -91 -317 -318 0
1 28 29 319 320 0
1 28 29 319 -320 0
1 28 29 -319 320 0
1 28 29 -319 -320 0
30 -60 -72 321 322 0
30 -60 -72 321 -322 0
30 -60 -72 -321 322 0
30 -60 -72 -321 -322 0
-4 12 81 323 324 0
-4 12 81 323 -324 0
-4 12 81 -323 324 0
-4 12 81 -323 -324 0
-10 19 -79 325 326 0
-10 19 -79 325 -326 0
-10 19 -79 -325 326 0
-10 19 -79 -325 -326 0
-47 81 100 327 328 0
-47 81 100 327 -328 0
-47 81 100 -327 328 0
-47 81 100 -327 -328 0
47 -90 329 330 331 0
47 -90 329 330 -331 0
47 -90 329 -330 331 0
47 -90 329 -330 -331 0
47 -90 -329 330 331 0
47 -90 -329 330 -331 0
47 -90 -329 -330 331 0
47 -90 -329 -330 -331 0
44 -56 91 332 333 0
44 -56 91 332 -333 0
44 -56 91 -332 333 0
44 -56 91 -332 -333 0
13 -44 88 334 335 0
13 -44 88 334 -335 0
13 -44 88 -334 335 0
13 -44 88 -334 -335 0
-64 -85 -99 336 337 0
-64 -85 -99 336 -337 0
-64 -85 -99 -336 337 0
-64 -85 -99 -336 -337 0
9 44 -100 338 339 0
9 44 -100 338 -339 0
9 44 -100 -338 339 0
9 44 -100 -338 -339 0
-4 68 -88 340 341 0
-4 68 -88 340 -341 0
-4 68 -88 -340 341 0
-4 68 -88 -340 -341 0
-20 33 38 342 343 0
-20 33 38 342 -343 0
-20 33 38 -342 343 0
-20 33 38 -342 -343 0
2 27 89 344 345 0
2 27 89 344 -345 0
2 27 89 -344 345 0
2 27 89 -344 -345 0
21 -57 -60 346 347 0
21 -57 -60 346 -347 0
21 -57 -60 -346 347 0
21 -57 -60 -346 -347 0
-37 -79 99 348 349 0
-37 -79 99 348 -349 0
-37 -79 99 -348 349 0
-37 -79 99 -348 -349 0
78 88 96 350 351 0
78 88 96 350 -351 0
78 88 96 -350 351 0
78 88 96 -350 -351 0
-56 -77 -82 352 353 0
-56 -77 -82 352 -353 0
-56 -77 -82 -352 353 0
-56 -77 -82 -352 -353 0
-16 -44 -91 354 355 0
-16 -44 -91 354 -355 0
-16 -44 -91 -354 355 0
-16 -44 -91 -354 -355 0
-16 29 -84 356 357 0
-16 29 -84 356 -357 0
-16 29 -84 -356 357 0
-16 29 -84 -356 -357 0
-66 -71 -86 358 359 0
-66 -71 -86 358 -359 0
-66 -71 -86 -358 359 0
-66 -71 -86 -358 -359 0
-25 88 -97 360 361 0
-25 88 -97 360 -361 0
-25 88 -97 -360 361 0
-25 88 -97 -360 -361 0
7 -59 -82 362 363 0
7 -59 -82 362 -363 0
7 -59 -82 -362 363 0
7 -59 -82 -362 -363 0
-28 42 -63 364 365 0
-28 42 -63 364 -365 0
-28 42 -63 -364 365 0
-28 42 -63 -364 -365 0
-42 -71 -76 366 367 0
-42 -71 -76 366 -367 0
-42 -71 -76 -366 367 0
-42 -71 -76 -366 -367 0
-20 -24 -56 368 369 0
-20 -24 -56 368 -369 0
-20 -24 -56 -368 369 0
-20 -24 -56 -368 -369 0
-15 59 370 371 372 0
-15 59 370 371 -372 0
-15 59 370 -371 372 0
-15 59 370 -371 -372 0
-15 59 -370 371 372 0
-15 59 -370 371 -372 0
-15 59 -370 -371 372 0
-15 59 -370 -371 -372 0
-46 60 84 373 374 0
-46 60 84 373 -374 0
-46 60 84 -373 374 0
-46 60 84 -373 -374 0
-33 -34 73 375 376 0
-33 -34 73 375 -376 0
-33 -34 73 -375 376 0
-33 -34 73 -375 -376 0
-49 60 63 377 378 0
-49 60 63 377 -378 0
-49 60 63 -377 378 0
-49 60 63 -377 -378 0
47 76 -88 379 380 0
47 76 -88 379 -380 0
47 76 -88 -379 380 0
47 76 -88 -379 -380 0
-24 -90 91 381 382 0
-24 -90 91 381 -382 0
-24 -90 91 -381 382 0
-24 -90 91 -381 -382 0
-44 -72 100 383 384 0
-44 -72 100 383 -384 0
-44 -72 100 -383 384 0
-44 -72 100 -383 -384 0
12 20 21 385 386 0
12 20 21 385 -386 0
12 20 21 -385 386 0
12 20 21 -385 -386 0
-3 -13 16 387 388 0
-3 -13 16 387 -388 0
-3 -13 16 -387 388 0
-3 -13 16 -387 -388 0
16 63 -64 389 390 0
16 63 -64 389 -390 0
16 63 -64 -389 390 0
16 63 -64 -389 -390 0
42 -97 -100 391 392 0
42 -97 -100 391 -392 0
42 -97 -100 -391 392 0
42 -97 -100 -391 -392 0
-5 -7 -84 393 394 0
-5 -7 -84 393 -394 0
-5 -7 -84 -393 394 0
-5 -7 -84 -393 -394 0
38 51 84 395 396 0
38 51 84 395 -396 0
38 51 84 -395 396 0
38 51 84 -395 -396 0
-43 -87 -88 397 398 0
-43 -87 -88 397 -398 0
-43 -87 -88 -397 398 0
-43 -87 -88 -397 -398 0
25 -63 86 399 400 0
25 -63 86 399 -400 0
25 -63 86 -399 400 0
25 -63 86 -399 -400 0
-32 59 -77 401 402 0
-32 59 -77 401 -402 0
-32 59 -77 -401 402 0
-32 59 -77 -401 -402 0
13 23 -86 403 404 0
13 23 -86 403 -404 0
13 23 -86 -403 404 0
13 23 -86 -403 -404 0
22 -44 65 405 406 0
22 -44 65 405 -406 0
22 -44 65 -405 406 0
22 -44 65 -405 -406 0
-34 37 -99 407 408 0
-34 37 -99 407 -408 0
-34 37 -99 -407 408 0
-34 37 -99 -407 -408 0
-15 30 -40 409 410 0
-15 30 -40 409 -410 0
-15 30 -40 -409 410 0
-15 30 -40 -409 -410 0
-16 38 86 411 412 0
-16 38 86 411 -412 0
-16 38 86 -411 412 0
-16 38 86 -411 -412 0
32 -43 89 413 414 0
32 -43 89 413 -414 0
32 -43 89 -413 414 0
32 -43 89 -413 -414 0
19 -43 -46 415 416 0
19 -43 -46 415 -416 0
19 -43 -46 -415 416 0
19 -43 -46 -415 -416 0
46 -74 -82 417 418 0
46 -74 -82 417 -418 0
46 -74 -82 -417 418 0
46 -74 -82 -417 -418 0
38 -85 94 419 420 0
38 -85 94 419 -420 0
38 -85 94 -419 420 0
38 -85 94 -419 -420 0
-7 -64 70 421 422 0
-7 -64 70 421 -422 0
-7 -64 70 -421 422 0
-7 -64 70 -421 -422 0
